NAME: cum120.tsp
TYPE: TSP
COMMENT: User-generated TSP file
DIMENSION: 600
EDGE_WEIGHT_TYPE: EUC_2D
NODE_COORD_SECTION
1 174.0 533.0
2 526.0 384.0
3 562.0 139.0
4 491.0 45.0
5 137.0 499.0
6 315.0 369.0
7 243.0 600.0
8 31.0 560.0
9 12.0 495.0
10 503.0 348.0
11 16.0 511.0
12 196.0 166.0
13 590.0 293.0
14 276.0 173.0
15 100.0 484.0
16 480.0 460.0
17 478.0 395.0
18 125.0 350.0
19 15.0 63.0
20 334.0 552.0
21 566.0 41.0
22 563.0 184.0
23 51.0 170.0
24 320.0 310.0
25 487.0 17.0
26 366.0 326.0
27 27.0 403.0
28 578.0 333.0
29 328.0 168.0
30 381.0 179.0
31 296.0 486.0
32 486.0 257.0
33 136.0 287.0
34 407.0 167.0
35 356.0 394.0
36 566.0 180.0
37 63.0 531.0
38 497.0 17.0
39 189.0 319.0
40 567.0 523.0
41 351.0 337.0
42 358.0 158.0
43 599.0 53.0
44 235.0 492.0
45 482.0 292.0
46 24.0 581.0
47 424.0 38.0
48 210.0 470.0
49 518.0 240.0
50 510.0 251.0
51 459.0 441.0
52 430.0 166.0
53 565.0 220.0
54 436.0 142.0
55 194.0 291.0
56 257.0 284.0
57 141.0 573.0
58 549.0 113.0
59 567.0 353.0
60 173.0 239.0
61 499.0 181.0
62 439.0 404.0
63 435.0 150.0
64 406.0 426.0
65 562.0 437.0
66 562.0 600.0
67 395.0 396.0
68 242.0 522.0
69 19.0 598.0
70 537.0 357.0
71 440.0 93.0
72 456.0 205.0
73 116.0 533.0
74 327.0 449.0
75 202.0 186.0
76 200.0 535.0
77 483.0 558.0
78 572.0 542.0
79 553.0 77.0
80 331.0 201.0
81 312.0 372.0
82 99.0 72.0
83 182.0 261.0
84 324.0 217.0
85 598.0 192.0
86 232.0 287.0
87 186.0 441.0
88 562.0 136.0
89 475.0 73.0
90 551.0 28.0
91 94.0 53.0
92 78.0 7.0
93 100.0 595.0
94 138.0 508.0
95 375.0 459.0
96 190.0 112.0
97 296.0 135.0
98 71.0 306.0
99 158.0 435.0
100 12.0 525.0
101 515.0 468.0
102 224.0 303.0
103 90.0 340.0
104 133.0 326.0
105 549.0 582.0
106 353.0 305.0
107 115.0 96.0
108 239.0 309.0
109 506.0 192.0
110 49.0 178.0
111 309.0 146.0
112 56.0 234.0
113 402.0 188.0
114 404.0 411.0
115 333.0 437.0
116 438.0 397.0
117 141.0 466.0
118 132.0 314.0
119 272.0 313.0
120 536.0 115.0
121 35.0 41.0
122 416.0 77.0
123 84.0 99.0
124 276.0 437.0
125 265.0 56.0
126 587.0 144.0
127 224.0 547.0
128 224.0 115.0
129 356.0 584.0
130 529.0 320.0
131 290.0 503.0
132 579.0 369.0
133 289.0 469.0
134 324.0 390.0
135 279.0 51.0
136 161.0 197.0
137 438.0 237.0
138 295.0 478.0
139 291.0 419.0
140 166.0 574.0
141 89.0 270.0
142 99.0 246.0
143 548.0 256.0
144 189.0 594.0
145 308.0 375.0
146 145.0 581.0
147 422.0 8.0
148 30.0 124.0
149 312.0 136.0
150 600.0 17.0
151 350.0 466.0
152 298.0 448.0
153 212.0 183.0
154 284.0 563.0
155 397.0 530.0
156 310.0 460.0
157 247.0 468.0
158 135.0 598.0
159 584.0 442.0
160 248.0 364.0
161 130.0 579.0
162 551.0 36.0
163 133.0 540.0
164 488.0 548.0
165 65.0 575.0
166 554.0 274.0
167 277.0 553.0
168 196.0 306.0
169 488.0 228.0
170 218.0 195.0
171 479.0 21.0
172 495.0 322.0
173 236.0 24.0
174 226.0 46.0
175 210.0 157.0
176 598.0 75.0
177 587.0 424.0
178 486.0 473.0
179 320.0 280.0
180 270.0 88.0
181 109.0 42.0
182 579.0 327.0
183 531.0 187.0
184 374.0 60.0
185 532.0 599.0
186 521.0 348.0
187 347.0 370.0
188 92.0 141.0
189 332.0 21.0
190 428.0 494.0
191 325.0 374.0
192 573.0 508.0
193 112.0 57.0
194 94.0 89.0
195 456.0 160.0
196 92.0 553.0
197 581.0 372.0
198 337.0 392.0
199 96.0 306.0
200 135.0 251.0
201 447.0 184.0
202 260.0 413.0
203 482.0 186.0
204 464.0 326.0
205 6.0 467.0
206 173.0 383.0
207 540.0 312.0
208 278.0 371.0
209 37.0 259.0
210 207.0 405.0
211 69.0 423.0
212 369.0 7.0
213 337.0 124.0
214 511.0 192.0
215 523.0 535.0
216 365.0 406.0
217 367.0 253.0
218 55.0 9.0
219 294.0 397.0
220 575.0 90.0
221 495.0 442.0
222 576.0 284.0
223 460.0 321.0
224 330.0 236.0
225 319.0 11.0
226 264.0 71.0
227 327.0 187.0
228 266.0 444.0
229 532.0 600.0
230 408.0 95.0
231 134.0 392.0
232 526.0 362.0
233 89.0 477.0
234 446.0 526.0
235 479.0 437.0
236 381.0 498.0
237 31.0 224.0
238 162.0 395.0
239 432.0 139.0
240 483.0 157.0
241 148.0 466.0
242 451.0 414.0
243 443.0 61.0
244 133.0 419.0
245 312.0 238.0
246 451.0 378.0
247 204.0 192.0
248 277.0 114.0
249 468.0 462.0
250 187.0 206.0
251 378.0 548.0
252 301.0 592.0
253 362.0 25.0
254 503.0 186.0
255 538.0 355.0
256 256.0 126.0
257 179.0 347.0
258 255.0 537.0
259 372.0 509.0
260 346.0 282.0
261 122.0 6.0
262 131.0 489.0
263 476.0 451.0
264 454.0 480.0
265 222.0 219.0
266 63.0 507.0
267 175.0 287.0
268 528.0 294.0
269 202.0 16.0
270 244.0 430.0
271 268.0 583.0
272 184.0 523.0
273 232.0 84.0
274 498.0 392.0
275 178.0 200.0
276 577.0 9.0
277 582.0 410.0
278 86.0 504.0
279 452.0 357.0
280 500.0 118.0
281 243.0 3.0
282 327.0 494.0
283 130.0 281.0
284 295.0 122.0
285 317.0 371.0
286 505.0 453.0
287 498.0 245.0
288 274.0 265.0
289 81.0 46.0
290 253.0 45.0
291 489.0 345.0
292 557.0 59.0
293 379.0 83.0
294 303.0 24.0
295 3.0 525.0
296 97.0 315.0
297 71.0 109.0
298 552.0 236.0
299 395.0 371.0
300 301.0 213.0
301 81.0 24.0
302 230.0 100.0
303 77.0 44.0
304 314.0 386.0
305 345.0 15.0
306 197.0 587.0
307 394.0 420.0
308 162.0 494.0
309 421.0 553.0
310 306.0 63.0
311 497.0 463.0
312 411.0 348.0
313 255.0 574.0
314 175.0 573.0
315 229.0 437.0
316 496.0 559.0
317 368.0 173.0
318 544.0 61.0
319 487.0 16.0
320 50.0 570.0
321 581.0 571.0
322 447.0 425.0
323 472.0 48.0
324 63.0 14.0
325 485.0 445.0
326 349.0 459.0
327 255.0 83.0
328 137.0 406.0
329 333.0 308.0
330 430.0 239.0
331 35.0 355.0
332 346.0 422.0
333 387.0 207.0
334 160.0 284.0
335 345.0 300.0
336 537.0 57.0
337 446.0 228.0
338 501.0 18.0
339 169.0 563.0
340 135.0 11.0
341 219.0 480.0
342 524.0 148.0
343 230.0 383.0
344 396.0 398.0
345 312.0 324.0
346 67.0 310.0
347 239.0 341.0
348 399.0 536.0
349 185.0 582.0
350 330.0 433.0
351 193.0 48.0
352 272.0 584.0
353 138.0 554.0
354 368.0 204.0
355 524.0 472.0
356 501.0 582.0
357 286.0 189.0
358 552.0 474.0
359 438.0 317.0
360 460.0 435.0
361 134.0 88.0
362 361.0 211.0
363 560.0 540.0
364 480.0 46.0
365 305.0 421.0
366 316.0 61.0
367 76.0 94.0
368 287.0 154.0
369 563.0 328.0
370 246.0 63.0
371 95.0 37.0
372 402.0 246.0
373 64.0 180.0
374 305.0 70.0
375 191.0 141.0
376 461.0 549.0
377 421.0 76.0
378 247.0 337.0
379 28.0 372.0
380 74.0 454.0
381 69.0 470.0
382 277.0 230.0
383 407.0 50.0
384 286.0 186.0
385 124.0 150.0
386 447.0 148.0
387 19.0 467.0
388 102.0 74.0
389 332.0 423.0
390 237.0 598.0
391 195.0 534.0
392 174.0 533.0
393 173.0 473.0
394 164.0 193.0
395 245.0 54.0
396 42.0 53.0
397 485.0 275.0
398 61.0 95.0
399 146.0 396.0
400 117.0 384.0
401 571.0 488.0
402 563.0 290.0
403 275.0 231.0
404 396.0 369.0
405 134.0 161.0
406 283.0 225.0
407 12.0 257.0
408 40.0 335.0
409 334.0 127.0
410 418.0 191.0
411 245.0 455.0
412 152.0 55.0
413 284.0 6.0
414 139.0 542.0
415 145.0 8.0
416 128.0 110.0
417 394.0 431.0
418 540.0 57.0
419 156.0 303.0
420 186.0 176.0
421 33.0 67.0
422 340.0 360.0
423 209.0 343.0
424 50.0 587.0
425 67.0 207.0
426 119.0 221.0
427 24.0 77.0
428 232.0 10.0
429 582.0 23.0
430 308.0 406.0
431 286.0 53.0
432 385.0 506.0
433 105.0 518.0
434 530.0 159.0
435 43.0 79.0
436 89.0 230.0
437 177.0 522.0
438 77.0 562.0
439 151.0 155.0
440 392.0 267.0
441 73.0 12.0
442 559.0 231.0
443 38.0 351.0
444 256.0 21.0
445 577.0 198.0
446 460.0 55.0
447 192.0 102.0
448 486.0 71.0
449 597.0 312.0
450 430.0 352.0
451 41.0 577.0
452 402.0 450.0
453 52.0 106.0
454 1.0 107.0
455 516.0 209.0
456 396.0 119.0
457 430.0 173.0
458 71.0 473.0
459 424.0 22.0
460 54.0 446.0
461 435.0 557.0
462 420.0 452.0
463 495.0 564.0
464 107.0 315.0
465 323.0 145.0
466 232.0 342.0
467 345.0 334.0
468 502.0 88.0
469 206.0 277.0
470 325.0 230.0
471 300.0 350.0
472 9.0 173.0
473 226.0 100.0
474 599.0 428.0
475 310.0 440.0
476 337.0 5.0
477 76.0 212.0
478 189.0 246.0
479 123.0 526.0
480 565.0 422.0
481 547.0 484.0
482 434.0 476.0
483 46.0 387.0
484 30.0 263.0
485 478.0 55.0
486 531.0 158.0
487 400.0 507.0
488 343.0 325.0
489 3.0 13.0
490 408.0 229.0
491 272.0 527.0
492 16.0 317.0
493 38.0 384.0
494 597.0 302.0
495 203.0 161.0
496 282.0 476.0
497 595.0 214.0
498 17.0 45.0
499 393.0 77.0
500 408.0 52.0
501 440.0 479.0
502 171.0 172.0
503 134.0 145.0
504 493.0 90.0
505 304.0 543.0
506 517.0 548.0
507 514.0 398.0
508 207.0 23.0
509 55.0 194.0
510 6.0 545.0
511 142.0 386.0
512 567.0 226.0
513 21.0 465.0
514 179.0 524.0
515 350.0 578.0
516 568.0 525.0
517 323.0 85.0
518 150.0 116.0
519 67.0 134.0
520 521.0 28.0
521 20.0 337.0
522 214.0 439.0
523 140.0 166.0
524 407.0 188.0
525 274.0 449.0
526 92.0 187.0
527 44.0 140.0
528 401.0 599.0
529 434.0 169.0
530 231.0 277.0
531 543.0 585.0
532 231.0 414.0
533 279.0 347.0
534 157.0 468.0
535 50.0 524.0
536 363.0 307.0
537 427.0 385.0
538 174.0 20.0
539 412.0 37.0
540 423.0 451.0
541 358.0 482.0
542 193.0 191.0
543 327.0 264.0
544 541.0 313.0
545 437.0 382.0
546 282.0 166.0
547 574.0 97.0
548 398.0 273.0
549 428.0 438.0
550 466.0 40.0
551 3.0 349.0
552 358.0 337.0
553 405.0 81.0
554 260.0 230.0
555 112.0 328.0
556 271.0 595.0
557 263.0 296.0
558 82.0 175.0
559 388.0 576.0
560 539.0 118.0
561 406.0 323.0
562 168.0 301.0
563 1.0 319.0
564 329.0 489.0
565 574.0 394.0
566 27.0 554.0
567 552.0 580.0
568 98.0 431.0
569 140.0 310.0
570 306.0 63.0
571 175.0 459.0
572 599.0 146.0
573 302.0 228.0
574 546.0 130.0
575 505.0 106.0
576 359.0 348.0
577 205.0 567.0
578 533.0 234.0
579 475.0 599.0
580 558.0 421.0
581 116.0 526.0
582 270.0 18.0
583 390.0 412.0
584 453.0 513.0
585 25.0 236.0
586 116.0 356.0
587 147.0 1.0
588 27.0 230.0
589 102.0 269.0
590 593.0 471.0
591 151.0 278.0
592 592.0 168.0
593 328.0 196.0
594 449.0 122.0
595 96.0 454.0
596 160.0 483.0
597 552.0 89.0
598 103.0 406.0
599 580.0 14.0
600 370.0 24.0
EOF

